(set-option :produce-unsat-cores true )
(set-logic AUFDTLIA )
(declare-sort A$ 0 )
(declare-sort B$ 0 )
(declare-sort A_bool_fun$ 0 )
(declare-sort A_a_bool_fun_fun$ 0 )
(declare-sort B_option$ 0)
(declare-sort Color$ 0)
(declare-sort A_b_rbt$ 0)
(declare-sort A_list$ 0)
(declare-fun none$ ()B_option$)
(declare-fun the$ (B_option$)B$)
(declare-fun some$ (B$ )B_option$)
(declare-fun r$ ()Color$)
(declare-fun b$ ()Color$)
(declare-fun empty$ ()A_b_rbt$)
(declare-fun select$ (A_b_rbt$)Color$)
(declare-fun selecta$ (A_b_rbt$)A_b_rbt$)
(declare-fun selectb$ (A_b_rbt$)A$)
(declare-fun selectc$ (A_b_rbt$)B$)
(declare-fun selectd$ (A_b_rbt$)A_b_rbt$)
(declare-fun branch$ (Color$ A_b_rbt$ A$ B$ A_b_rbt$ )A_b_rbt$)
(declare-fun nil$ ()A_list$)
(declare-fun hd$ (A_list$)A$)
(declare-fun tl$ (A_list$)A_list$)
(declare-fun cons$ (A$ A_list$ )A_list$)
(declare-fun k$ ()A$ )
(declare-fun l$ ()A_b_rbt$ )
(declare-fun v$ ()B$ )
(declare-fun x$ ()A$ )
(declare-fun r$a ()A_b_rbt$ )
(declare-fun less$ ()A_a_bool_fun_fun$ )
(declare-fun balance$ (A_b_rbt$ A$ B$ A_b_rbt$ )A_b_rbt$ )
(declare-fun fun_app$ (A_bool_fun$ A$ )Bool )
(declare-fun fun_app$a (A_a_bool_fun_fun$ A$ )A_bool_fun$ )
(declare-fun rbt_less$ (A_a_bool_fun_fun$ A$ A_b_rbt$ )Bool )
(declare-fun lexordp_eq$ (A_a_bool_fun_fun$ A_list$ A_list$ )Bool )
(declare-fun rbt_lookup$ (A_a_bool_fun_fun$ A_b_rbt$ A$ )B_option$ )
(declare-fun rbt_sorted$ (A_a_bool_fun_fun$ A_b_rbt$ )Bool )
(declare-fun rbt_greater$ (A_a_bool_fun_fun$ A$ A_b_rbt$ )Bool )
(assert (! (not (= (rbt_lookup$ less$ (balance$ l$ k$ v$ r$a )x$ )(rbt_lookup$ less$ (branch$ b$ l$ k$ v$ r$a )x$ ))):named a0 ))
(assert (! (forall ((?v0 A$ )(?v1 A$ ))(= (not (fun_app$ (fun_app$a less$ ?v0 )?v1 ))(or (fun_app$ (fun_app$a less$ ?v1 )?v0 )(= ?v0 ?v1 )))):named a1 ))
(assert (! (forall ((?v0 A$ )(?v1 A$ ))(= (not (= ?v0 ?v1 ))(or (fun_app$ (fun_app$a less$ ?v0 )?v1 )(fun_app$ (fun_app$a less$ ?v1 )?v0 )))):named a2 ))
(assert (! (forall ((?v0 A$ )(?v1 A$ ))(=> (and (=> (fun_app$ (fun_app$a less$ ?v0 )?v1 )false )(and (=> (= ?v0 ?v1 )false )(=> (fun_app$ (fun_app$a less$ ?v1 )?v0 )false )))false )):named a3 ))
(assert (! (forall ((?v0 A$ )(?v1 A$ ))(=> (and (fun_app$ (fun_app$a less$ ?v0 )?v1 )(=> (not false )(fun_app$ (fun_app$a less$ ?v1 )?v0 )))false )):named a4 ))
(assert (! (forall ((?v0 A$ )(?v1 A$ )(?v2 A$ ))(=> (and (fun_app$ (fun_app$a less$ ?v0 )?v1 )(fun_app$ (fun_app$a less$ ?v1 )?v2 ))(fun_app$ (fun_app$a less$ ?v0 )?v2 ))):named a5 ))
(assert (! (forall ((?v0 A$ )(?v1 A$ )(?v2 A$ ))(=> (and (fun_app$ (fun_app$a less$ ?v0 )?v1 )(fun_app$ (fun_app$a less$ ?v1 )?v2 ))(fun_app$ (fun_app$a less$ ?v0 )?v2 ))):named a6 ))
(assert (! (forall ((?v0 A$ )(?v1 A$ )(?v2 A$ ))(=> (and (fun_app$ (fun_app$a less$ ?v0 )?v1 )(fun_app$ (fun_app$a less$ ?v2 )?v0 ))(fun_app$ (fun_app$a less$ ?v2 )?v1 ))):named a7 ))
(assert (! (forall ((?v0 A$ )(?v1 A$ ))(=> (and (fun_app$ (fun_app$a less$ ?v0 )?v1 )(fun_app$ (fun_app$a less$ ?v1 )?v0 ))false )):named a8 ))
(assert (! (forall ((?v0 A$ )(?v1 A$ ))(=> (and (fun_app$ (fun_app$a less$ ?v0 )?v1 )(fun_app$ (fun_app$a less$ ?v1 )?v0 ))false )):named a9 ))
(assert (! (forall ((?v0 A$ )(?v1 A$ ))(=> (and (fun_app$ (fun_app$a less$ ?v0 )?v1 )(fun_app$ (fun_app$a less$ ?v1 )?v0 ))false )):named a10 ))
(assert (! (forall ((?v0 A$ )(?v1 A$ )(?v2 A$ ))(=> (and (fun_app$ (fun_app$a less$ ?v0 )?v1 )(= ?v1 ?v2 ))(fun_app$ (fun_app$a less$ ?v0 )?v2 ))):named a11 ))
(assert (! (forall ((?v0 A$ )(?v1 A$ ))(=> (fun_app$ (fun_app$a less$ ?v0 )?v1 )(= (= ?v1 ?v0 )false ))):named a12 ))
(assert (! (forall ((?v0 A$ )(?v1 A$ ))(=> (fun_app$ (fun_app$a less$ ?v0 )?v1 )(= (= ?v0 ?v1 )false ))):named a13 ))
(assert (! (forall ((?v0 A$ )(?v1 A$ )(?v2 Bool ))(=> (fun_app$ (fun_app$a less$ ?v0 )?v1 )(= (=> (fun_app$ (fun_app$a less$ ?v1 )?v0 )?v2 )true ))):named a14 ))
(assert (! (forall ((?v0 A$ )(?v1 A$ ))(=> (fun_app$ (fun_app$a less$ ?v0 )?v1 )(= (not (fun_app$ (fun_app$a less$ ?v1 )?v0 ))true ))):named a15 ))
(assert (! (forall ((?v0 A$ )(?v1 A$ ))(=> (fun_app$ (fun_app$a less$ ?v0 )?v1 )(not (fun_app$ (fun_app$a less$ ?v1 )?v0 )))):named a16 ))
(assert (! (forall ((?v0 A$ )(?v1 A$ ))(=> (fun_app$ (fun_app$a less$ ?v0 )?v1 )(not (= ?v0 ?v1 )))):named a17 ))
(assert (! (forall ((?v0 A$ )(?v1 A$ ))(=> (fun_app$ (fun_app$a less$ ?v0 )?v1 )(not (= ?v0 ?v1 )))):named a18 ))
(assert (! (forall ((?v0 A$ )(?v1 A$ ))(=> (fun_app$ (fun_app$a less$ ?v0 )?v1 )(not (= ?v1 ?v0 )))):named a19 ))
(assert (! (forall ((?v0 A$ )(?v1 A$ )(?v2 A$ ))(=> (and (= ?v0 ?v1 )(fun_app$ (fun_app$a less$ ?v1 )?v2 ))(fun_app$ (fun_app$a less$ ?v0 )?v2 ))):named a20 ))
(assert (! (forall ((?v0 A$ )(?v1 A$ ))(=> (not (fun_app$ (fun_app$a less$ ?v0 )?v1 ))(= (not (fun_app$ (fun_app$a less$ ?v1 )?v0 ))(= ?v1 ?v0 )))):named a21 ))
(assert (! (forall ((?v0 A$ )(?v1 A$ ))(=> (and (not (= ?v0 ?v1 ))(and (=> (fun_app$ (fun_app$a less$ ?v0 )?v1 )false )(=> (fun_app$ (fun_app$a less$ ?v1 )?v0 )false )))false )):named a22 ))
(assert (! (forall ((?v0 A$ )(?v1 A$ ))(or (fun_app$ (fun_app$a less$ ?v0 )?v1 )(or (= ?v0 ?v1 )(fun_app$ (fun_app$a less$ ?v1 )?v0 )))):named a23 ))
(assert (! (forall ((?v0 A$ ))(not (fun_app$ (fun_app$a less$ ?v0 )?v0 ))):named a24 ))
(assert (! (forall ((?v0 A$ ))(not (fun_app$ (fun_app$a less$ ?v0 )?v0 ))):named a25 ))
(assert (! (forall ((?v0 Color$ )(?v1 A_b_rbt$ )(?v2 A$ )(?v3 B$ )(?v4 A_b_rbt$ )(?v5 Color$ )(?v6 A_b_rbt$ )(?v7 A$ )(?v8 B$ )(?v9 A_b_rbt$ ))(= (= (branch$ ?v0 ?v1 ?v2 ?v3 ?v4 )(branch$ ?v5 ?v6 ?v7 ?v8 ?v9 ))(and (= ?v0 ?v5 )(and (= ?v1 ?v6 )(and (= ?v2 ?v7 )(and (= ?v3 ?v8 )(= ?v4 ?v9 ))))))):named a26 ))
(assert (! (rbt_sorted$ less$ l$ ):named a27 ))
(assert (! (rbt_sorted$ less$ r$a ):named a28 ))
(assert (! (rbt_less$ less$ k$ l$ ):named a29 ))
(assert (! (rbt_greater$ less$ k$ r$a ):named a30 ))
(assert (! (forall ((?v0 Color$ )(?v1 A_b_rbt$ )(?v2 A$ )(?v3 B$ )(?v4 A_b_rbt$ )(?v5 A$ )(?v6 B$ )(?v7 A_b_rbt$ )(?v8 A$ )(?v9 B$ )(?v10 A_b_rbt$ )(?v11 A$ )(?v12 B$ )(?v13 A_b_rbt$ )(?v14 A$ )(?v15 B$ )(?v16 A_b_rbt$ ))(! (= (balance$ (branch$ ?v0 (branch$ b$ ?v1 ?v2 ?v3 ?v4 )?v5 ?v6 (branch$ b$ ?v7 ?v8 ?v9 ?v10 ))?v11 ?v12 (branch$ b$ ?v13 ?v14 ?v15 ?v16 ))(branch$ b$ (branch$ ?v0 (branch$ b$ ?v1 ?v2 ?v3 ?v4 )?v5 ?v6 (branch$ b$ ?v7 ?v8 ?v9 ?v10 ))?v11 ?v12 (branch$ b$ ?v13 ?v14 ?v15 ?v16 ))):pattern ((balance$ (branch$ ?v0 (branch$ b$ ?v1 ?v2 ?v3 ?v4 )?v5 ?v6 (branch$ b$ ?v7 ?v8 ?v9 ?v10 ))?v11 ?v12 (branch$ b$ ?v13 ?v14 ?v15 ?v16 ))))):named a31 ))
(assert (! (forall ((?v0 A_b_rbt$ )(?v1 A$ )(?v2 B$ )(?v3 A_b_rbt$ )(?v4 A$ )(?v5 B$ )(?v6 A_b_rbt$ )(?v7 A$ )(?v8 B$ )(?v9 A_b_rbt$ )(?v10 A$ )(?v11 B$ )(?v12 A_b_rbt$ ))(! (= (balance$ (branch$ b$ (branch$ b$ ?v0 ?v1 ?v2 ?v3 )?v4 ?v5 ?v6 )?v7 ?v8 (branch$ b$ ?v9 ?v10 ?v11 ?v12 ))(branch$ b$ (branch$ b$ (branch$ b$ ?v0 ?v1 ?v2 ?v3 )?v4 ?v5 ?v6 )?v7 ?v8 (branch$ b$ ?v9 ?v10 ?v11 ?v12 ))):pattern ((balance$ (branch$ b$ (branch$ b$ ?v0 ?v1 ?v2 ?v3 )?v4 ?v5 ?v6 )?v7 ?v8 (branch$ b$ ?v9 ?v10 ?v11 ?v12 ))))):named a32 ))
(assert (! (forall ((?v0 A_b_rbt$ )(?v1 A$ )(?v2 B$ )(?v3 A_b_rbt$ )(?v4 A$ )(?v5 B$ )(?v6 Color$ )(?v7 A_b_rbt$ )(?v8 A$ )(?v9 B$ )(?v10 A_b_rbt$ )(?v11 A$ )(?v12 B$ )(?v13 A_b_rbt$ )(?v14 A$ )(?v15 B$ )(?v16 A_b_rbt$ ))(! (= (balance$ (branch$ b$ ?v0 ?v1 ?v2 ?v3 )?v4 ?v5 (branch$ ?v6 (branch$ b$ ?v7 ?v8 ?v9 ?v10 )?v11 ?v12 (branch$ b$ ?v13 ?v14 ?v15 ?v16 )))(branch$ b$ (branch$ b$ ?v0 ?v1 ?v2 ?v3 )?v4 ?v5 (branch$ ?v6 (branch$ b$ ?v7 ?v8 ?v9 ?v10 )?v11 ?v12 (branch$ b$ ?v13 ?v14 ?v15 ?v16 )))):pattern ((balance$ (branch$ b$ ?v0 ?v1 ?v2 ?v3 )?v4 ?v5 (branch$ ?v6 (branch$ b$ ?v7 ?v8 ?v9 ?v10 )?v11 ?v12 (branch$ b$ ?v13 ?v14 ?v15 ?v16 )))))):named a33 ))
(assert (! (forall ((?v0 A_b_rbt$ )(?v1 A$ )(?v2 B$ )(?v3 A_b_rbt$ )(?v4 A$ )(?v5 B$ )(?v6 A_b_rbt$ )(?v7 A$ )(?v8 B$ )(?v9 A_b_rbt$ )(?v10 A$ )(?v11 B$ )(?v12 A_b_rbt$ ))(! (= (balance$ (branch$ b$ ?v0 ?v1 ?v2 ?v3 )?v4 ?v5 (branch$ b$ ?v6 ?v7 ?v8 (branch$ b$ ?v9 ?v10 ?v11 ?v12 )))(branch$ b$ (branch$ b$ ?v0 ?v1 ?v2 ?v3 )?v4 ?v5 (branch$ b$ ?v6 ?v7 ?v8 (branch$ b$ ?v9 ?v10 ?v11 ?v12 )))):pattern ((balance$ (branch$ b$ ?v0 ?v1 ?v2 ?v3 )?v4 ?v5 (branch$ b$ ?v6 ?v7 ?v8 (branch$ b$ ?v9 ?v10 ?v11 ?v12 )))))):named a34 ))
(assert (! (forall ((?v0 A_b_rbt$ )(?v1 A$ )(?v2 B$ )(?v3 A_b_rbt$ )(?v4 A$ )(?v5 B$ )(?v6 A_b_rbt$ )(?v7 A$ )(?v8 B$ )(?v9 A_b_rbt$ ))(! (= (balance$ (branch$ b$ ?v0 ?v1 ?v2 ?v3 )?v4 ?v5 (branch$ b$ ?v6 ?v7 ?v8 ?v9 ))(branch$ b$ (branch$ b$ ?v0 ?v1 ?v2 ?v3 )?v4 ?v5 (branch$ b$ ?v6 ?v7 ?v8 ?v9 ))):pattern ((balance$ (branch$ b$ ?v0 ?v1 ?v2 ?v3 )?v4 ?v5 (branch$ b$ ?v6 ?v7 ?v8 ?v9 ))))):named a35 ))
(assert (! (forall ((?v0 A_b_rbt$ )(?v1 A$ )(?v2 B$ )(?v3 A_b_rbt$ )(?v4 A$ )(?v5 B$ )(?v6 A_b_rbt$ )(?v7 A$ )(?v8 B$ )(?v9 A_b_rbt$ ))(! (= (balance$ (branch$ b$ ?v0 ?v1 ?v2 ?v3 )?v4 ?v5 (branch$ b$ ?v6 ?v7 ?v8 ?v9 ))(branch$ b$ (branch$ b$ ?v0 ?v1 ?v2 ?v3 )?v4 ?v5 (branch$ b$ ?v6 ?v7 ?v8 ?v9 ))):pattern ((balance$ (branch$ b$ ?v0 ?v1 ?v2 ?v3 )?v4 ?v5 (branch$ b$ ?v6 ?v7 ?v8 ?v9 ))))):named a36 ))
(assert (! (forall ((?v0 Color$ )(?v1 A_b_rbt$ )(?v2 A$ )(?v3 B$ )(?v4 A_b_rbt$ )(?v5 A$ ))(! (= (rbt_lookup$ less$ (branch$ ?v0 ?v1 ?v2 ?v3 ?v4 )?v5 )(ite (fun_app$ (fun_app$a less$ ?v5 )?v2 )(rbt_lookup$ less$ ?v1 ?v5 )(ite (fun_app$ (fun_app$a less$ ?v2 )?v5 )(rbt_lookup$ less$ ?v4 ?v5 )(some$ ?v3 )))):pattern ((rbt_lookup$ less$ (branch$ ?v0 ?v1 ?v2 ?v3 ?v4 )?v5 )))):named a37 ))
(assert (! (forall ((?v0 A$ )(?v1 A_b_rbt$ )(?v2 A$ ))(=> (and (rbt_less$ less$ ?v0 ?v1 )(fun_app$ (fun_app$a less$ ?v0 )?v2 ))(rbt_less$ less$ ?v2 ?v1 ))):named a38 ))
(assert (! (forall ((?v0 A$ )(?v1 A$ )(?v2 A_b_rbt$ ))(=> (and (fun_app$ (fun_app$a less$ ?v0 )?v1 )(rbt_greater$ less$ ?v1 ?v2 ))(rbt_greater$ less$ ?v0 ?v2 ))):named a39 ))
(assert (! (forall ((?v0 A_list$ )(?v1 A_list$ )(?v2 A_list$ ))(=> (and (lexordp_eq$ less$ ?v0 ?v1 )(lexordp_eq$ less$ ?v1 ?v2 ))(lexordp_eq$ less$ ?v0 ?v2 ))):named a40 ))
(assert (! (forall ((?v0 A_list$ )(?v1 A_list$ ))(=> (and (lexordp_eq$ less$ ?v0 ?v1 )(lexordp_eq$ less$ ?v1 ?v0 ))(= ?v0 ?v1 ))):named a41 ))
(assert (! (forall ((?v0 A_list$ ))(lexordp_eq$ less$ ?v0 ?v0 )):named a42 ))
(assert (! (forall ((?v0 A_list$ )(?v1 A_list$ ))(or (lexordp_eq$ less$ ?v0 ?v1 )(lexordp_eq$ less$ ?v1 ?v0 ))):named a43 ))
(assert (! (forall ((?v0 A$ )(?v1 A_b_rbt$ )(?v2 A$ )(?v3 B$ )(?v4 A_b_rbt$ ))(= (rbt_less$ less$ ?v0 (balance$ ?v1 ?v2 ?v3 ?v4 ))(and (rbt_less$ less$ ?v0 ?v1 )(and (rbt_less$ less$ ?v0 ?v4 )(fun_app$ (fun_app$a less$ ?v2 )?v0 ))))):named a44 ))
(assert (! (forall ((?v0 A$ )(?v1 A_b_rbt$ )(?v2 A$ )(?v3 B$ )(?v4 A_b_rbt$ ))(= (rbt_greater$ less$ ?v0 (balance$ ?v1 ?v2 ?v3 ?v4 ))(and (rbt_greater$ less$ ?v0 ?v1 )(and (rbt_greater$ less$ ?v0 ?v4 )(fun_app$ (fun_app$a less$ ?v0 )?v2 ))))):named a45 ))
(assert (! (forall ((?v0 A$ )(?v1 Color$ )(?v2 A_b_rbt$ )(?v3 A$ )(?v4 B$ )(?v5 A_b_rbt$ ))(! (= (rbt_less$ less$ ?v0 (branch$ ?v1 ?v2 ?v3 ?v4 ?v5 ))(and (fun_app$ (fun_app$a less$ ?v3 )?v0 )(and (rbt_less$ less$ ?v0 ?v2 )(rbt_less$ less$ ?v0 ?v5 )))):pattern ((rbt_less$ less$ ?v0 (branch$ ?v1 ?v2 ?v3 ?v4 ?v5 ))))):named a46 ))
(check-sat )
(get-unsat-core )
